110
34
41
47
82
38
0
8
26
87
14
56
29
24
13
35
18
0
14
45
12
25
15
19
31
43
22
56
14
18
22
23
0
16
61
31
0
40
63
13
56
34
31
25
32
38
16
0
10
12
42
20
14
30
28
11
57
28
67
39
41
18
25
16
49
16
34
21
0
34
40
51
14
0
0
48
0
45
12
10
23
25
95
36
21
36
109
60
25
0
0
14
39
8
28
36
22
16
0
65
